F=506;
S=13;
M=5;
A=[1,3,10,70,500];
B=[-0,0.66,5.35,59.35,489.35];
Si=[{3,0},
    {1},
    {9},
    {9},
    {3,2},
    {3},
    {9,4},
    {9,5},
    {1,6},
    {1},
    {3,0,7},
    {3,0,8},
    {1},
    {9,5},
    {9},
    {3,10},
    {3,0,11},
    {3},
    {3,10,12},
    {1},
    {3,0,7},
    {3,0},
    {0,3},
    {0,3,1},
    {0},
    {0,9},
    {0,3,2},
    {0,3},
    {0,9,4},
    {0,9,5},
    {0,7,6},
    {0,7,6},
    {0,7},
    {0,8},
    {0,8},
    {0,9,5},
    {0,9},
    {0,3,10},
    {0,11},
    {0,3},
    {0,3,10,12},
    {0,3},
    {0,7},
    {0},
    {1},
    {1,3,0},
    {1,9},
    {1,9},
    {1,3,2},
    {1,3},
    {1,9,4},
    {1,9,5},
    {1,6},
    {1},
    {1,6,7},
    {1,8},
    {1},
    {1,9,5},
    {1,9},
    {1,6,10},
    {1,11},
    {1,3},
    {1,6,10,12},
    {1},
    {1,6,7},
    {1,6,10},
    {9},
    {0},
    {9,1},
    {9},
    {0,3,2},
    {0,3},
    {9,4},
    {9,5},
    {9,6},
    {9,6},
    {0,7},
    {0,8},
    {0,8},
    {9,5},
    {9},
    {0,3,10},
    {0,11},
    {0,3},
    {9,5,12},
    {0,3},
    {0,7},
    {0},
    {9},
    {9,0},
    {9,1},
    {9},
    {9,3,2},
    {9,3},
    {4},
    {4,5},
    {9,6},
    {9,6},
    {9,6,7},
    {9,0,8},
    {9,1},
    {4,5},
    {9},
    {9,6,10},
    {9,0,11},
    {9,3},
    {4,5,12},
    {9,1},
    {9,6,7},
    {9,0},
    {2,3},
    {2,3,0},
    {2,3,1},
    {2,3,0},
    {2,3,9},
    {2,3},
    {2,3,9,4},
    {2,3,9,5},
    {2,3,10,6},
    {2,3,1},
    {2,3,0,7},
    {2,8},
    {2,8},
    {2,3,10,12},
    {2,3,9},
    {2,3,10},
    {2,3,0,11},
    {2},
    {2,3,10,12},
    {2,3},
    {2,3,0,7},
    {2,3,0},
    {3},
    {3,0},
    {3,1},
    {3,0},
    {3,9},
    {3,2},
    {3,9,4},
    {3,9,5},
    {3,10,6},
    {3,1},
    {3,0,7},
    {3,0,8},
    {3,1},
    {3,10,12},
    {3,9},
    {3,10},
    {3,0,11},
    {3},
    {3,10,12},
    {3},
    {3,0,7},
    {3,0},
    {4,9},
    {4,9,0},
    {4,9,1},
    {4,9},
    {4},
    {4,9,3,2},
    {4,9,3},
    {4,5},
    {4,9,6},
    {4,9,6},
    {4,9,6,7},
    {4,9,0,8},
    {4,9,1},
    {4,5},
    {4,9},
    {4,9,6,10},
    {4,9,0,11},
    {4,9,3},
    {4,5,12},
    {4,9,1},
    {4,5,12},
    {4,9,0},
    {5,9},
    {5,9,0},
    {5,9,1},
    {5,9},
    {5,4},
    {5,9,3,2},
    {5,9,3},
    {5,4},
    {5,9,6},
    {5,9,6},
    {5,9,6,7},
    {5,9,0,8},
    {5,9,1},
    {5},
    {5,9},
    {5,9,6,10},
    {5,9,0,11},
    {5,9,3},
    {5,12},
    {5,9,1},
    {5,12},
    {5,9,0},
    {6,1},
    {6,7,0},
    {6,1},
    {6,9},
    {6,9},
    {6,10,3,2},
    {6,10,3},
    {6,9,4},
    {6,9,5},
    {6},
    {6,7},
    {6,10,8},
    {6,1},
    {6,9,5},
    {6,9},
    {6,10},
    {6,7,0,11},
    {6,10,3},
    {6,10,12},
    {6,1},
    {6,7},
    {6,10},
    {1},
    {6,7,0},
    {1},
    {6,9},
    {6,9},
    {1,3,2},
    {1,3},
    {6,9,4},
    {6,9,5},
    {6},
    {6,7},
    {1,8},
    {1},
    {6,9,5},
    {6,9},
    {6,10},
    {1,11},
    {1,3},
    {6,10,12},
    {1},
    {6,7},
    {6,10},
    {7,0,3},
    {7,0},
    {7,6,1},
    {7,0},
    {7,6,9},
    {7,0,3,2},
    {7,0,3},
    {7,6,9,4},
    {7,6,9,5},
    {7,6},
    {7,6},
    {7,0,8},
    {7,6,1},
    {7,12},
    {7,6,9},
    {7,6,10},
    {7,0,11},
    {7,0,3},
    {7,12},
    {7,0,3},
    {7},
    {7,0},
    {8,0,3},
    {8,0},
    {8,1},
    {8,0},
    {8,0,9},
    {8,2},
    {8,0,3},
    {8,0,9,4},
    {8,0,9,5},
    {8,10,6},
    {8,1},
    {8,0,7},
    {8},
    {8,10,12},
    {8,0,9},
    {8,10},
    {8,0,11},
    {8},
    {8,10,12},
    {8,0,3},
    {8,0,7},
    {8,0},
    {1},
    {8,0},
    {1},
    {8,0},
    {1,9},
    {8,2},
    {1,3},
    {1,9,4},
    {1,9,5},
    {1,6},
    {1},
    {1,6,7},
    {8},
    {8,10,12},
    {1,9},
    {8,10},
    {8,0,11},
    {8},
    {8,10,12},
    {1},
    {1,6,7},
    {8,0},
    {5,9},
    {5,9,0},
    {5,9,1},
    {5,9},
    {5,4},
    {12,10,3,2},
    {12,10,3},
    {5,4},
    {5},
    {5,9,6},
    {5,9,6},
    {12,7},
    {12,10,8},
    {12,10,8},
    {5,9},
    {12,10},
    {5,9,0,11},
    {12,10,3},
    {12},
    {12,10,3},
    {12},
    {12,10},
    {9},
    {9,0},
    {9,1},
    {9},
    {9},
    {9,3,2},
    {9,3},
    {9,4},
    {9,5},
    {9,6},
    {9,6},
    {9,6,7},
    {9,0,8},
    {9,1},
    {9,5},
    {9,6,10},
    {9,0,11},
    {9,3},
    {9,5,12},
    {9,1},
    {9,6,7},
    {9,0},
    {10,3},
    {10,3,0},
    {10,6,1},
    {10,3,0},
    {10,6,9},
    {10,3,2},
    {10,3},
    {10,6,9,4},
    {10,6,9,5},
    {10,6},
    {10,6},
    {10,6,7},
    {10,8},
    {10,8},
    {10,12},
    {10,6,9},
    {10,3,0,11},
    {10,3},
    {10,12},
    {10,3},
    {10,12},
    {10},
    {11,0,3},
    {11,0},
    {11,1},
    {11,0},
    {11,0,9},
    {11,0,3,2},
    {11,0,3},
    {11,0,9,4},
    {11,0,9,5},
    {11,0,7,6},
    {11,1},
    {11,0,7},
    {11,0,8},
    {11,0,8},
    {11,0,9,5},
    {11,0,9},
    {11,0,3,10},
    {11,0,3},
    {11,0,3,10,12},
    {11},
    {11,0,7},
    {11,0},
    {3},
    {3,0},
    {3,1},
    {3,0},
    {3,9},
    {2},
    {3},
    {3,9,4},
    {3,9,5},
    {3,10,6},
    {3,1},
    {3,0,7},
    {8},
    {8},
    {3,10,12},
    {3,9},
    {3,10},
    {3,0,11},
    {3,10,12},
    {3},
    {3,0,7},
    {3,0},
    {12,10,3},
    {12,10,3,0},
    {12,10,6,1},
    {12,5,9},
    {12,5,4},
    {12,10,3,2},
    {12,10,3},
    {12,5,4},
    {12,5},
    {12,10,6},
    {12,10,6},
    {12,7},
    {12,10,8},
    {12,10,8},
    {12},
    {12,5,9},
    {12,10},
    {12,10,3,0,11},
    {12,10,3},
    {12,10,3},
    {12},
    {12,10},
    {1},
    {3,0},
    {1},
    {3,0},
    {1,9},
    {3,2},
    {3},
    {1,9,4},
    {1,9,5},
    {1,6},
    {1},
    {3,0,7},
    {3,0,8},
    {1},
    {3,10,12},
    {1,9},
    {3,10},
    {11},
    {3},
    {3,10,12},
    {3,0,7},
    {3,0},
    {7,0,3},
    {7,0},
    {7,6,1},
    {7,0},
    {7,6,9},
    {7,0,3,2},
    {7,0,3},
    {12,5,4},
    {12,5},
    {7,6},
    {7,6},
    {7},
    {7,0,8},
    {7,6,1},
    {12},
    {7,6,9},
    {12,10},
    {7,0,11},
    {7,0,3},
    {12},
    {7,0,3},
    {7,0},
    {0,3},
    {0},
    {10,6,1},
    {0},
    {0,9},
    {0,3,2},
    {0,3},
    {0,9,4},
    {0,9,5},
    {10,6},
    {10,6},
    {0,7},
    {0,8},
    {0,8},
    {10,12},
    {0,9},
    {10},
    {0,11},
    {0,3},
    {10,12},
    {0,3},
    {0,7}];
weight=[217,227,217,250,298,258,211,223,256,258,261,291,279,227,275,242,228,200,260,230,272,268,297,294,298,274,280,227,285,245,215,220,230,223,292,240,212,220,235,248,206,221,204,270,242,286,242,214,213,298,276,279,224,202,279,273,230,253,203,285,257,221,222,273,281,221,222,296,202,234,259,258,246,226,288,224,284,291,268,285,262,257,217,265,288,278,204,216,222,239,231,237,238,248,262,233,227,294,224,218,239,223,282,237,202,281,293,268,222,232,215,251,272,255,283,209,211,258,236,270,287,201,210,219,253,263,292,284,281,256,225,288,234,223,280,218,222,270,204,232,287,231,234,284,261,254,286,240,235,287,244,268,258,212,212,291,216,259,269,265,252,210,292,248,213,251,239,284,240,246,206,227,295,220,248,236,232,268,288,266,208,291,287,237,231,291,243,224,276,250,250,201,254,215,243,290,232,210,261,203,219,291,216,254,247,287,294,205,243,243,206,271,290,278,259,199,212,262,262,264,247,212,254,207,217,221,280,219,258,207,204,238,267,292,285,231,212,252,269,253,283,261,250,295,248,293,202,256,249,251,279,253,272,254,271,255,281,243,289,205,268,255,242,283,230,250,291,209,222,285,271,227,247,276,240,272,224,275,254,224,225,287,239,291,235,234,285,212,206,227,255,286,250,212,250,295,291,288,284,219,287,244,295,285,257,242,267,213,231,285,262,201,217,233,282,274,223,230,274,259,281,213,258,266,240,206,220,255,273,297,240,241,271,220,261,204,274,215,279,282,226,266,210,286,218,296,263,215,230,271,205,229,244,293,222,251,286,291,241,294,266,282,226,287,232,222,270,290,254,294,202,223,253,259,274,300,284,234,214,211,252,239,234,215,248,292,242,221,282,284,248,272,259,241,213,264,246,269,258,221,210,214,211,253,205,290,251,254,222,282,222,266,268,254,200,282,242,288,221,265,293,283,264,210,287,279,207,219,261,201,257,216,205,249,287,270,255,270,278,290,288,242,256,245,252,247,268,210,219,239,233,226,220,229,275,276,255,266,239,259,215,236,233,279,224,286,281,289,223,222,221,244,284,249,215,208,215,290,244,268,274,274,224,224,273,275,245,236,248,279,279,216,215,291,267,272,208,273,284,221,202,286,272,218,273,271];
N=[2847,8578,661,6663,9209,9143,452,5146,3895,8891,7740,7007,8818];
